50
120
100
99
99
98
95
95
95
94
90
87
87
86
85
85
83
82
80
79
79
76
73
73
72
71
70
69
69
68
68
66
65
63
63
62
58
57
56
55
54
53
52
49
47
46
46
43
42
35
34
31
